100
100
100
13 38 72 38 56 21 78 55 13 12 45 55 27 64 78 55 33 64 45 55 24 30 22 64 45 21 33 4 67 30 67 12 47 73 47 38 26 64 58 90 53 90 74 38 9 90 49 47 72 12 58 38 6 81 8 30 76 30 51 81 13 4 65 21 31 81 78 90 42 90 35 55 47 30 65 90 69 47 49 64 17 30 69 21 54 64 49 38 47 90 42 90 42 73 17 55 78 21 20 81 49 38 72 47 17 73 13 30 24 21 4 4 54 4 11 64 74 21 58 90 71 30 8 55 6 64 56 64 56 90 71 21 45 90 53 47 71 73 49 90 69 73 58 55 78 38 67 90 24 4 65 30 42 81 20 30 38 90 72 12 67 47 29 90 76 73 74 64 9 30 4 38 42 4 29 55 71 73 42 81 63 81 15 4 71 64 24 64 9 47 44 73 4 12 18 4 78 47 33 73 
